# Solution for model problem_
# Objective value = 1.6637353780757380e+05
x(0_0) 0
x(0_1) 0
x(0_2) 0
x(0_3) 0
x(0_4) 0
x(0_5) 0
x(0_6) 1
x(0_7) 0
x(0_8) 0
x(0_9) 0
x(0_10) 0
x(0_11) 0
x(0_12) 0
x(0_13) 0
x(0_14) 0
x(0_15) 0
x(1_16) 0
x(1_17) 0
x(1_18) 0
x(1_19) 0
x(1_20) 0
x(1_21) 0
x(1_22) 0
x(1_23) 0
x(1_24) 0
x(1_25) 0
x(1_26) 0
x(1_27) 0
x(1_28) 0
x(1_29) 0
x(1_30) 1
x(1_31) 0
x(2_32) 0
x(2_33) 0
x(2_34) 0
x(2_35) 0
x(2_36) 0
x(2_37) 0
x(2_38) 0
x(2_39) 0
x(2_40) 0
x(2_41) 0
x(2_42) 0
x(2_43) 0
x(2_44) 0
x(2_45) 0
x(2_46) 0
x(2_47) 0
x(2_48) 0
x(2_49) 1
x(2_50) 0
x(3_51) 0
x(3_52) 0
x(3_53) 0
x(3_54) 0
x(3_55) 0
x(3_56) 0
x(3_57) 0
x(3_58) 0
x(3_59) 1
x(3_60) 0
x(3_61) 0
x(3_62) 0
x(3_63) 0
x(3_64) 0
x(3_65) 0
x(3_66) 0
x(4_67) 0
x(4_68) 0
x(4_69) 1
x(4_70) 0
x(4_71) 0
x(4_72) 0
x(4_73) 0
x(4_74) 0
x(4_75) 0
x(4_76) 0
x(5_77) 0
x(5_78) 0
x(5_79) 0
x(5_80) 0
x(5_81) 0
x(5_82) 0
x(5_83) 0
x(5_84) 0
x(5_85) 0
x(5_86) 1
x(5_87) 0
x(6_88) 0
x(6_89) 0
x(6_90) 1
x(6_91) 0
x(6_92) 0
x(6_93) 0
x(6_94) 0
x(6_95) 0
x(6_96) 0
x(6_97) 0
x(6_98) 0
x(6_99) 0
x(6_100) 0
x(6_101) 0
x(7_102) 0
x(7_103) 1
x(7_104) 0
x(7_105) 0
x(7_106) 0
x(7_107) 0
x(7_108) 0
x(7_109) 0
x(7_110) 0
x(7_111) 0
x(7_112) 0
x(7_113) 0
x(7_114) 0
x(7_115) 0
x(7_116) 0
x(7_117) 0
x(7_118) 0
x(8_119) 0
x(8_120) 0
x(8_121) 0
x(8_122) 0
x(8_123) 0
x(8_124) 0
x(8_125) 0
x(8_126) 0
x(8_127) 0
x(8_128) 0
x(8_129) 1
x(8_130) 0
x(8_131) 0
x(8_132) 0
x(8_133) 0
x(8_134) 0
x(8_135) 0
x(9_136) 0
x(9_137) 0
x(9_138) 1
x(9_139) 0
x(9_140) 0
x(9_141) 0
x(9_142) 0
x(9_143) 0
x(9_144) 0
x(9_145) 0
x(9_146) 0
x(9_147) 0
x(9_148) 0
x(9_149) 0
x(9_150) 0
x(9_151) 0
x(10_152) 0
x(10_153) 0
x(10_154) 0
x(10_155) 1
x(10_156) 0
x(10_157) 0
x(10_158) 0
x(10_159) 0
x(10_160) 0
x(10_161) 0
x(10_162) 0
x(10_163) 0
x(10_164) 0
x(11_165) 0
x(11_166) 0
x(11_167) 0
x(11_168) 0
x(11_169) 0
x(11_170) 0
x(11_171) 0
x(11_172) 0
x(11_173) 0
x(11_174) 0
x(11_175) 1
x(11_176) 0
x(11_177) 0
x(11_178) 0
x(11_179) 0
x(11_180) 0
x(11_181) 0
x(11_182) 0
x(11_183) 0
x(11_184) 0
x(12_185) 0
x(12_186) 0
x(12_187) 0
x(12_188) 0
x(12_189) 0
x(12_190) 0
x(12_191) 0
x(12_192) 0
x(12_193) 0
x(12_194) 0
x(12_195) 1
x(13_196) 0
x(13_197) 0
x(13_198) 0
x(13_199) 0
x(13_200) 0
x(13_201) 0
x(13_202) 1
x(13_203) 0
x(13_204) 0
x(13_205) 0
x(13_206) 0
x(13_207) 0
x(13_208) 0
x(13_209) 0
x(14_210) 0
x(14_211) 0
x(14_212) 0
x(14_213) 1
x(14_214) 0
x(14_215) 0
x(14_216) 0
x(14_217) 0
x(14_218) 0
x(14_219) 0
x(14_220) 0
x(14_221) 0
x(14_222) 0
x(14_223) 0
x(15_224) 0
x(15_225) 0
x(15_226) 0
x(15_227) 0
x(15_228) 0
x(15_229) 0
x(15_230) 1
x(15_231) 0
x(15_232) 0
x(15_233) 0
x(15_234) 0
x(15_235) 0
x(15_236) 0
x(15_237) 0
x(15_238) 0
x(15_239) 0
x(16_240) 0
x(16_241) 0
x(16_242) 0
x(16_243) 0
x(16_244) 1
x(16_245) 0
x(16_246) 0
x(16_247) 0
x(16_248) 0
x(16_249) 0
x(16_250) 0
x(16_251) 0
x(16_252) 0
x(17_253) 0
x(17_254) 0
x(17_255) 0
x(17_256) 0
x(17_257) 1
x(17_258) 0
x(17_259) 0
x(17_260) 0
x(17_261) 0
x(17_262) 0
x(17_263) 0
x(17_264) 0
x(18_265) 0
x(18_266) 0
x(18_267) 0
x(18_268) 0
x(18_269) 0
x(18_270) 0
x(18_271) 0
x(18_272) 0
x(18_273) 1
x(18_274) 0
x(18_275) 0
x(18_276) 0
x(18_277) 0
x(18_278) 0
x(18_279) 0
x(18_280) 0
x(18_281) 0
x(18_282) 0
x(18_283) 0
x(18_284) 0
x(19_285) 0
x(19_286) 0
x(19_287) 0
x(19_288) 0
x(19_289) 0
x(19_290) 0
x(19_291) 0
x(19_292) 0
x(19_293) 0
x(19_294) 0
x(19_295) 1
x(19_296) 0
x(19_297) 0
x(19_298) 0
x(20_299) 0
x(20_300) 0
x(20_301) 0
x(20_302) 0
x(20_303) 0
x(20_304) 0
x(20_305) 0
x(20_306) 0
x(20_307) 0
x(20_308) 1
x(20_309) 0
x(20_310) 0
x(20_311) 0
x(20_312) 0
x(20_313) 0
x(20_314) 0
x(20_315) 0
x(20_316) 0
x(20_317) 0
x(20_318) 0
x(21_319) 1
x(21_320) 0
x(21_321) 0
x(21_322) 0
x(21_323) 0
x(21_324) 0
x(21_325) 0
x(21_326) 0
x(21_327) 0
x(21_328) 0
x(21_329) 0
x(21_330) 0
x(21_331) 0
x(21_332) 0
x(21_333) 0
x(21_334) 0
x(22_335) 0
x(22_336) 0
x(22_337) 0
x(22_338) 0
x(22_339) 0
x(22_340) 1
x(22_341) 0
x(22_342) 0
x(22_343) 0
x(22_344) 0
x(22_345) 0
x(22_346) 0
x(22_347) 0
x(23_348) 0
x(23_349) 0
x(23_350) 0
x(23_351) 0
x(23_352) 0
x(23_353) 0
x(23_354) 0
x(23_355) 0
x(23_356) 0
x(23_357) 0
x(23_358) 0
x(23_359) 0
x(23_360) 1
x(23_361) 0
x(23_362) 0
x(23_363) 0
x(23_364) 0
x(23_365) 0
x(23_366) 0
x(24_367) 0
x(24_368) 0
x(24_369) 0
x(24_370) 0
x(24_371) 0
x(24_372) 0
x(24_373) 0
x(24_374) 0
x(24_375) 0
x(24_376) 1
x(24_377) 0
x(24_378) 0
x(24_379) 0
x(24_380) 0
x(24_381) 0
x(24_382) 0
x(25_383) 0
x(25_384) 1
x(25_385) 0
x(25_386) 0
x(25_387) 0
x(25_388) 0
x(25_389) 0
x(25_390) 0
x(25_391) 0
x(25_392) 0
x(25_393) 0
x(25_394) 0
x(26_395) 0
x(26_396) 0
x(26_397) 0
x(26_398) 0
x(26_399) 0
x(26_400) 0
x(26_401) 0
x(26_402) 0
x(26_403) 0
x(26_404) 0
x(26_405) 1
x(26_406) 0
x(26_407) 0
x(26_408) 0
x(26_409) 0
x(27_410) 0
x(27_411) 0
x(27_412) 0
x(27_413) 0
x(27_414) 0
x(27_415) 0
x(27_416) 0
x(27_417) 0
x(27_418) 0
x(27_419) 0
x(27_420) 0
x(27_421) 0
x(27_422) 0
x(27_423) 0
x(27_424) 0
x(27_425) 0
x(27_426) 0
x(27_427) 1
x(27_428) 0
x(27_429) 0
x(28_430) 0
x(28_431) 0
x(28_432) 0
x(28_433) 1
x(28_434) 0
x(28_435) 0
x(28_436) 0
x(28_437) 0
x(28_438) 0
x(28_439) 0
x(28_440) 0
x(28_441) 0
x(28_442) 0
x(28_443) 0
x(28_444) 0
x(28_445) 0
x(28_446) 0
x(28_447) 0
x(29_448) 0
x(29_449) 0
x(29_450) 0
x(29_451) 0
x(29_452) 0
x(29_453) 0
x(29_454) 0
x(29_455) 0
x(29_456) 0
x(29_457) 0
x(29_458) 0
x(29_459) 0
x(29_460) 0
x(29_461) 1
x(30_462) 0
x(30_463) 0
x(30_464) 0
x(30_465) 0
x(30_466) 0
x(30_467) 0
x(30_468) 0
x(30_469) 0
x(30_470) 0
x(30_471) 0
x(30_472) 1
x(30_473) 0
x(30_474) 0
x(30_475) 0
x(30_476) 0
x(30_477) 0
x(30_478) 0
x(30_479) 0
x(30_480) 0
x(30_481) 0
x(31_482) 0
x(31_483) 0
x(31_484) 0
x(31_485) 0
x(31_486) 0
x(31_487) 0
x(31_488) 0
x(31_489) 0
x(31_490) 0
x(31_491) 0
x(31_492) 0
x(31_493) 0
x(31_494) 0
x(31_495) 1
x(31_496) 0
x(31_497) 0
x(31_498) 0
x(31_499) 0
x(32_500) 0
x(32_501) 1
x(32_502) 0
x(32_503) 0
x(32_504) 0
x(32_505) 0
x(32_506) 0
x(32_507) 0
x(32_508) 0
x(32_509) 0
x(33_510) 0
x(33_511) 0
x(33_512) 0
x(33_513) 0
x(33_514) 0
x(33_515) 0
x(33_516) 0
x(33_517) 0
x(33_518) 1
x(33_519) 0
x(33_520) 0
x(33_521) 0
x(34_522) 0
x(34_523) 0
x(34_524) 0
x(34_525) 1
x(34_526) 0
x(34_527) 0
x(34_528) 0
x(34_529) 0
x(34_530) 0
x(34_531) 0
x(35_532) 0
x(35_533) 0
x(35_534) 0
x(35_535) 0
x(35_536) 1
x(35_537) 0
x(35_538) 0
x(35_539) 0
x(35_540) 0
x(35_541) 0
x(35_542) 0
x(35_543) 0
x(35_544) 0
x(35_545) 0
x(35_546) 0
x(36_547) 0
x(36_548) 0
x(36_549) 0
x(36_550) 0
x(36_551) 0
x(36_552) 0
x(36_553) 0
x(36_554) 0
x(36_555) 0
x(36_556) 0
x(36_557) 0
x(36_558) 0
x(36_559) 1
x(36_560) 0
x(36_561) 0
x(37_562) 0
x(37_563) 0
x(37_564) 0
x(37_565) 0
x(37_566) 0
x(37_567) 0
x(37_568) 0
x(37_569) 0
x(37_570) 0
x(37_571) 0
x(37_572) 0
x(37_573) 0
x(37_574) 0
x(37_575) 1
x(37_576) 0
x(37_577) 0
x(37_578) 0
x(38_579) 0
x(38_580) 0
x(38_581) 0
x(38_582) 0
x(38_583) 0
x(38_584) 0
x(38_585) 1
x(38_586) 0
x(38_587) 0
x(38_588) 0
x(38_589) 0
x(38_590) 0
x(38_591) 0
x(38_592) 0
x(38_593) 0
x(38_594) 0
x(38_595) 0
x(38_596) 0
x(38_597) 0
x(38_598) 0
x(39_599) 0
x(39_600) 1
x(39_601) 0
x(39_602) 0
x(39_603) 0
x(39_604) 0
x(39_605) 0
x(39_606) 0
x(39_607) 0
x(39_608) 0
x(39_609) 0
x(39_610) 0
x(39_611) 0
x(39_612) 0
x(39_613) 0
x(40_614) 1
x(40_615) 0
x(40_616) 0
x(40_617) 0
x(40_618) 0
x(40_619) 0
x(40_620) 0
x(40_621) 0
x(40_622) 0
x(40_623) 0
x(40_624) 0
x(40_625) 0
x(41_626) 0
x(41_627) 1
x(41_628) 0
x(41_629) 0
x(41_630) 0
x(41_631) 0
x(41_632) 0
x(41_633) 0
x(41_634) 0
x(41_635) 0
x(41_636) 0
x(41_637) 0
x(41_638) 0
x(41_639) 0
x(42_640) 0
x(42_641) 0
x(42_642) 1
x(42_643) 0
x(42_644) 0
x(42_645) 0
x(42_646) 0
x(42_647) 0
x(42_648) 0
x(42_649) 0
x(43_650) 0
x(43_651) 1
x(43_652) 0
x(43_653) 0
x(43_654) 0
x(43_655) 0
x(43_656) 0
x(43_657) 0
x(43_658) 0
x(43_659) 0
x(43_660) 0
x(43_661) 0
x(43_662) 0
x(43_663) 0
x(43_664) 0
x(43_665) 0
x(43_666) 0
x(43_667) 0
x(43_668) 0
x(43_669) 0
x(44_670) 0
x(44_671) 1
x(44_672) 0
x(44_673) 0
x(44_674) 0
x(44_675) 0
x(44_676) 0
x(44_677) 0
x(44_678) 0
x(44_679) 0
x(44_680) 0
x(44_681) 0
x(44_682) 0
x(44_683) 0
x(44_684) 0
x(45_685) 0
x(45_686) 0
x(45_687) 0
x(45_688) 0
x(45_689) 0
x(45_690) 0
x(45_691) 0
x(45_692) 0
x(45_693) 0
x(45_694) 0
x(45_695) 0
x(45_696) 0
x(45_697) 1
x(46_698) 0
x(46_699) 0
x(46_700) 0
x(46_701) 0
x(46_702) 0
x(46_703) 0
x(46_704) 0
x(46_705) 0
x(46_706) 0
x(46_707) 0
x(46_708) 0
x(46_709) 1
x(46_710) 0
x(47_711) 0
x(47_712) 0
x(47_713) 0
x(47_714) 0
x(47_715) 0
x(47_716) 0
x(47_717) 0
x(47_718) 0
x(47_719) 0
x(47_720) 0
x(47_721) 0
x(47_722) 0
x(47_723) 1
x(47_724) 0
x(48_725) 1
x(48_726) 0
x(48_727) 0
x(48_728) 0
x(48_729) 0
x(48_730) 0
x(48_731) 0
x(48_732) 0
x(48_733) 0
x(48_734) 0
x(48_735) 0
x(49_736) 0
x(49_737) 0
x(49_738) 0
x(49_739) 0
x(49_740) 0
x(49_741) 0
x(49_742) 0
x(49_743) 0
x(49_744) 0
x(49_745) 0
x(49_746) 1
x(49_747) 0
x(49_748) 0
x(50_749) 0
x(50_750) 0
x(50_751) 0
x(50_752) 0
x(50_753) 0
x(50_754) 0
x(50_755) 1
x(50_756) 0
x(50_757) 0
x(50_758) 0
x(50_759) 0
x(50_760) 0
x(51_761) 0
x(51_762) 0
x(51_763) 0
x(51_764) 0
x(51_765) 0
x(51_766) 0
x(51_767) 0
x(51_768) 1
x(51_769) 0
x(51_770) 0
x(51_771) 0
x(51_772) 0
x(51_773) 0
x(51_774) 0
x(51_775) 0
x(52_776) 0
x(52_777) 0
x(52_778) 0
x(52_779) 0
x(52_780) 0
x(52_781) 1
x(52_782) 0
x(52_783) 0
x(52_784) 0
x(52_785) 0
x(52_786) 0
x(52_787) 0
x(52_788) 0
x(52_789) 0
x(52_790) 0
x(52_791) 0
x(53_792) 0
x(53_793) 0
x(53_794) 0
x(53_795) 0
x(53_796) 0
x(53_797) 0
x(53_798) 0
x(53_799) 0
x(53_800) 0
x(53_801) 0
x(53_802) 0
x(53_803) 1
x(54_804) 0
x(54_805) 0
x(54_806) 0
x(54_807) 0
x(54_808) 0
x(54_809) 0
x(54_810) 0
x(54_811) 0
x(54_812) 0
x(54_813) 1
x(54_814) 0
x(54_815) 0
x(54_816) 0
x(54_817) 0
x(55_818) 0
x(55_819) 0
x(55_820) 0
x(55_821) 0
x(55_822) 0
x(55_823) 0
x(55_824) 0
x(55_825) 0
x(55_826) 0
x(55_827) 0
x(55_828) 0
x(55_829) 0
x(55_830) 0
x(55_831) 0
x(55_832) 1
x(55_833) 0
x(55_834) 0
x(55_835) 0
x(56_836) 0
x(56_837) 0
x(56_838) 1
x(56_839) 0
x(56_840) 0
x(56_841) 0
x(56_842) 0
x(56_843) 0
x(56_844) 0
x(56_845) 0
x(57_846) 0
x(57_847) 0
x(57_848) 0
x(57_849) 1
x(57_850) 0
x(57_851) 0
x(57_852) 0
x(57_853) 0
x(57_854) 0
x(57_855) 0
x(58_856) 0
x(58_857) 0
x(58_858) 0
x(58_859) 0
x(58_860) 0
x(58_861) 0
x(58_862) 0
x(58_863) 0
x(58_864) 1
x(58_865) 0
x(58_866) 0
x(58_867) 0
x(58_868) 0
x(58_869) 0
x(58_870) 0
x(58_871) 0
x(58_872) 0
x(58_873) 0
x(59_874) 0
x(59_875) 0
x(59_876) 0
x(59_877) 0
x(59_878) 0
x(59_879) 0
x(59_880) 0
x(59_881) 0
x(59_882) 0
x(59_883) 0
x(59_884) 0
x(59_885) 0
x(59_886) 0
x(59_887) 0
x(59_888) 1
x(59_889) 0
x(59_890) 0
x(59_891) 0
x(60_892) 1
x(60_893) 0
x(60_894) 0
x(60_895) 0
x(60_896) 0
x(60_897) 0
x(60_898) 0
x(60_899) 0
x(60_900) 0
x(60_901) 0
x(60_902) 0
x(60_903) 0
x(60_904) 0
x(60_905) 0
x(60_906) 0
x(60_907) 0
x(60_908) 0
x(60_909) 0
x(60_910) 0
x(60_911) 0
x(61_912) 0
x(61_913) 0
x(61_914) 1
x(61_915) 0
x(61_916) 0
x(61_917) 0
x(61_918) 0
x(61_919) 0
x(61_920) 0
x(61_921) 0
x(61_922) 0
x(61_923) 0
x(61_924) 0
x(61_925) 0
x(62_926) 0
x(62_927) 0
x(62_928) 0
x(62_929) 0
x(62_930) 0
x(62_931) 0
x(62_932) 0
x(62_933) 0
x(62_934) 0
x(62_935) 0
x(62_936) 1
x(62_937) 0
x(62_938) 0
x(62_939) 0
x(62_940) 0
x(62_941) 0
x(62_942) 0
x(62_943) 0
x(63_944) 0
x(63_945) 0
x(63_946) 0
x(63_947) 0
x(63_948) 0
x(63_949) 0
x(63_950) 0
x(63_951) 0
x(63_952) 0
x(63_953) 0
x(63_954) 1
x(63_955) 0
x(63_956) 0
x(63_957) 0
x(63_958) 0
x(63_959) 0
x(63_960) 0
x(63_961) 0
x(63_962) 0
x(63_963) 0
x(64_964) 0
x(64_965) 0
x(64_966) 0
x(64_967) 0
x(64_968) 0
x(64_969) 1
x(64_970) 0
x(64_971) 0
x(64_972) 0
x(64_973) 0
x(64_974) 0
x(64_975) 0
x(64_976) 0
x(64_977) 0
x(64_978) 0
x(64_979) 0
x(64_980) 0
x(64_981) 0
x(64_982) 0
x(64_983) 0
x(65_984) 0
x(65_985) 0
x(65_986) 0
x(65_987) 0
x(65_988) 0
x(65_989) 0
x(65_990) 0
x(65_991) 0
x(65_992) 0
x(65_993) 0
x(65_994) 0
x(65_995) 0
x(65_996) 0
x(65_997) 1
x(65_998) 0
x(65_999) 0
x(65_1000) 0
x(65_1001) 0
x(65_1002) 0
x(65_1003) 0
x(66_1004) 0
x(66_1005) 1
x(66_1006) 0
x(66_1007) 0
x(66_1008) 0
x(66_1009) 0
x(66_1010) 0
x(66_1011) 0
x(66_1012) 0
x(66_1013) 0
x_1_0 3.0775498769246042e+02
s_1_0 0
z_1_0 9.9692245012307534e-01
x_1_1 0
s_1_1 1.5978504264494404e+00
z_1_1 1
x_1_2 3.0936863122506475e+02
s_1_2 0
z_1_2 9.9690631368774929e-01
x_1_3 3.1008471415191889e+02
s_1_3 0
z_1_3 9.9689915285848085e-01
x_1_4 0
s_1_4 1.1037486803252250e+00
z_1_4 1
x_1_5 3.0655860429909080e+02
s_1_5 0
z_1_5 9.9693441395700910e-01
x_1_6 0
s_1_6 1.4673715485259891e+00
z_1_6 1
x_1_7 3.0755621899012476e+02
s_1_7 0
z_1_7 9.9692443781009876e-01
x_1_8 3.1084671413898468e+02
s_1_8 0
z_1_8 9.9689153285861010e-01
x_1_9 3.0629998999647796e+02
s_1_9 0
z_1_9 9.9693700010003516e-01
x_1_10 3.0784998774528503e+02
s_1_10 0
z_1_10 9.9692150012254721e-01
x_1_11 0
s_1_11 1.0225626030878630e+00
z_1_11 1
x_1_12 0
s_1_12 1.0305886988644488e+00
z_1_12 1
x_1_13 3.0752699636644684e+02
s_1_13 0
z_1_13 9.9692473003633553e-01
x_1_14 3.1037692582607269e+02
s_1_14 0
z_1_14 9.9689623074173928e-01
x_1_15 3.0895325620286167e+02
s_1_15 0
z_1_15 9.9691046743797140e-01
x_1_16 0
s_1_16 1.0301622012993903e+00
z_1_16 1
x_1_17 0
s_1_17 1.5538131337380037e+00
z_1_17 1
x_1_18 3.0952623054571450e+02
s_1_18 0
z_1_18 9.9690473769454291e-01
x_1_19 0
s_1_19 1.1996174594387412e+00
z_1_19 1
x_1_20 3.1012694793941046e+02
s_1_20 0
z_1_20 0.996898730520606
x_1_21 3.0623259455524385e+02
s_1_21 0
z_1_21 9.9693767405444755e-01
x_1_22 0
s_1_22 1.4600858955818694e+00
z_1_22 1
x_1_23 0
s_1_23 6.1773233885469381e-01
z_1_23 1
x_1_24 3.0943932703509927e+02
s_1_24 0
z_1_24 0.996905606729649
x_1_25 3.0869649055227637e+02
s_1_25 0
z_1_25 9.9691303509447726e-01
x_1_26 0
s_1_26 1.5292668742768
z_1_26 1
x_1_27 3.0765704145468771e+02
s_1_27 0
z_1_27 9.9692342958545310e-01
x_1_28 3.1047265006229281e+02
s_1_28 0
z_1_28 9.9689527349937712e-01
x_1_29 3.0987259139865637e+02
s_1_29 0
z_1_29 9.9690127408601348e-01
x_1_30 0
s_1_30 1.4061173199443147e+00
z_1_30 1
x_1_31 0
s_1_31 1.15488189397729
z_1_31 1
x_1_32 3.0842933867686952e+02
s_1_32 0
z_1_32 9.9691570661323137e-01
x_1_33 3.0629475229233503e+02
s_1_33 0
z_1_33 9.9693705247707665e-01
x_1_34 0
s_1_34 6.0248839261475950e-01
z_1_34 1
x_1_35 3.0815664459578693e+02
s_1_35 0
z_1_35 9.9691843355404208e-01
x_1_36 3.0834580797703529e+02
s_1_36 0
z_1_36 9.9691654192022972e-01
x_1_37 0
s_1_37 1.5276608744279656e+00
z_1_37 1
x_1_38 0
s_1_38 1.0518122318608221e+00
z_1_38 1
x_1_39 3.0929493622202426e+02
s_1_39 0
z_1_39 9.9690705063777973e-01
x_1_40 308.615124957636
s_1_40 0
z_1_40 9.9691384875042366e-01
x_1_41 0
s_1_41 7.8918613487621769e-01
z_1_41 1
x_1_42 3.0744027529096638e+02
s_1_42 0
z_1_42 9.9692559724709029e-01
x_1_43 3.0740805202092452e+02
s_1_43 0
z_1_43 9.9692591947979070e-01
x_1_44 0
s_1_44 9.7731612832285464e-01
z_1_44 1
x_1_45 3.0655483309082047e+02
s_1_45 0
z_1_45 9.9693445166909178e-01
x_1_46 3.0662432942539454e+02
s_1_46 0
z_1_46 0.996933756705746
x_1_47 0
s_1_47 1.1494328628177755e+00
z_1_47 1
x_1_48 0
s_1_48 1.0035342262999620e+00
z_1_48 1
x_1_49 0
s_1_49 1.0502875098027289e+00
z_1_49 1
x_1_50 3.1076481418684125e+02
s_1_50 0
z_1_50 9.9689235185813163e-01
x_1_51 0
s_1_51 1.0137165008927695e+00
z_1_51 1
x_1_52 3.0994086449312454e+02
s_1_52 0
z_1_52 9.9690059135506870e-01
x_1_53 3.0684036704897881e+02
s_1_53 0
z_1_53 9.9693159632951023e-01
x_1_54 310.933163914975
s_1_54 0
z_1_54 9.9689066836085027e-01
x_1_55 3.0848720866627991e+02
s_1_55 0
z_1_55 9.9691512791333714e-01
x_1_56 0
s_1_56 0.426666560166268
z_1_56 1
x_1_57 3.0898286573874066e+02
s_1_57 0
z_1_57 9.9691017134261262e-01
x_1_58 0
s_1_58 1.3937415344444162e+00
z_1_58 1
x_1_59 3.0707505944836885e+02
s_1_59 0
z_1_59 9.9692924940551630e-01
x_1_60 4.9999128490647025e+04
s_1_60 5.0000871509352975e+04
z_1_60 5.0000871509352973e-01
x_1_61 0
s_1_61 2.0169420299171179e+00
z_1_61 1
x_1_62 3.0728022688440979e+02
s_1_62 0
z_1_62 9.9692719773115590e-01
x_1_63 0
s_1_63 1.6906560942734359e+00
z_1_63 1
x_1_64 0
s_1_64 6.6462951304856688e-01
z_1_64 1
x_1_65 311.078757085852
s_1_65 0
z_1_65 9.9688921242914152e-01
x_1_66 4.9999358549530916e+04
s_1_66 5.0000641450469084e+04
z_1_66 5.0000641450469085e-01
x_1_67 3.0857816264405847e+02
s_1_67 0
z_1_67 9.9691421837355942e-01
x_1_68 3.0979393094319676e+02
s_1_68 0
z_1_68 9.9690206069056808e-01
x_1_69 0
s_1_69 2.0160466261440888e+00
z_1_69 1
x_1_70 0
s_1_70 1.8598899038042873e+00
z_1_70 1
x_1_71 3.0703927017936076e+02
s_1_71 0
z_1_71 9.9692960729820645e-01
x_1_72 4.9999213079524365e+04
s_1_72 5.0000786920475635e+04
z_1_72 5.0000786920475637e-01
x_1_73 4.9999358762999822e+04
s_1_73 5.0000641237000178e+04
z_1_73 5.0000641237000176e-01
x_1_74 0
s_1_74 1.1500962712452747e+00
z_1_74 1
x_1_75 3.0955867093428969e+02
s_1_75 0
z_1_75 0.996904413290657
x_1_76 0
s_1_76 8.4820826663781190e-01
z_1_76 1
x_1_77 3.0791170445062744e+02
s_1_77 0
z_1_77 9.9692088295549375e-01
x_1_78 3.1043557860143483e+02
s_1_78 0
z_1_78 9.9689564421398569e-01
x_1_79 3.1037124719748681e+02
s_1_79 0
z_1_79 9.9689628752802506e-01
x_1_80 0
s_1_80 1.6450777274440043e+00
z_1_80 1
x_1_81 3.0628961689583957e+02
s_1_81 0
z_1_81 9.9693710383104162e-01
x_1_82 0
s_1_82 1.8688122913008556e+00
z_1_82 1
x_1_83 3.0463775483332574e+02
s_1_83 0
z_1_83 9.9695362245166674e-01
x_1_84 3.0624945993139409e+02
s_1_84 0
z_1_84 0.996937505400686
x_1_85 3.0719920204298978e+02
s_1_85 0
z_1_85 0.99692800797957
x_1_86 0
s_1_86 8.8917646350819268e-01
z_1_86 1
x_1_87 0
s_1_87 5.4648648675356526e-01
z_1_87 1
x_1_88 0
s_1_88 9.2473962400981691e-01
z_1_88 1
x_1_89 4.9999231136192990e+04
s_1_89 5.0000768863807010e+04
z_1_89 5.0000768863807010e-01
x_1_90 0
s_1_90 1.6928254344820743e+00
z_1_90 1
x_1_91 0
s_1_91 1.1715117404237390e+00
z_1_91 1
x_1_92 0
s_1_92 8.8571175879042130e-01
z_1_92 1
x_1_93 3.0712710993271321e+02
s_1_93 0
z_1_93 9.9692872890067286e-01
x_1_94 0
s_1_94 1.3675903862749692e+00
z_1_94 1
x_1_95 3.0965476142241096e+02
s_1_95 0
z_1_95 9.9690345238577582e-01
x_1_96 0
s_1_96 9.5494264573790133e-01
z_1_96 1
x_1_97 0
s_1_97 8.3348418792593293e-01
z_1_97 1
x_1_98 3.0989022737927735e+02
s_1_98 0
z_1_98 9.9690109772620716e-01
x_1_99 3.1034259623262915e+02
s_1_99 0
z_1_99 9.9689657403767373e-01
x_1_100 3.1052147375495406e+02
s_1_100 0
z_1_100 9.9689478526245046e-01
x_1_101 308.210816340521
s_1_101 0
z_1_101 9.9691789183659485e-01
x_1_102 4.9999173418675993e+04
s_1_102 5.0000826581324007e+04
z_1_102 5.0000826581324009e-01
x_1_103 0
s_1_103 6.6992022389968042e-01
z_1_103 1
x_1_104 4.9999588232332862e+04
s_1_104 5.0000411767667145e+04
z_1_104 5.0000411767667141e-01
x_1_105 0
s_1_105 8.8225013578630751e-01
z_1_105 1
x_1_106 310.415618580766
s_1_106 0
z_1_106 9.9689584381419238e-01
x_1_107 3.0660650905220245e+02
s_1_107 0
z_1_107 9.9693393490947790e-01
x_1_108 3.0836132774500584e+02
s_1_108 0
z_1_108 9.9691638672254990e-01
x_1_109 4.9999783596546913e+04
s_1_109 5.0000216403453087e+04
z_1_109 5.0000216403453090e-01
x_1_110 3.0934233660809696e+02
s_1_110 0
z_1_110 0.996906576633919
x_1_111 0
s_1_111 9.9003053508931771e-01
z_1_111 1
x_1_112 4.9999556007677369e+04
s_1_112 5.0000443992322631e+04
z_1_112 5.0000443992322630e-01
x_1_113 0
s_1_113 2.0019612011965364e+00
z_1_113 1
x_1_114 3.0822269731386041e+02
s_1_114 0
z_1_114 9.9691777302686135e-01
x_1_115 3.0730938484286889e+02
s_1_115 0
z_1_115 9.9692690615157131e-01
x_1_116 0
s_1_116 1.9603737967845518e+00
z_1_116 1
x_1_117 3.0789132481999695e+02
s_1_117 0
z_1_117 0.9969210867518
x_1_118 0
s_1_118 1.7180801971117035e+00
z_1_118 1
x_1_119 0
s_1_119 1.5717818101693410e+00
z_1_119 1
x_1_120 3.1011577306222171e+02
s_1_120 0
z_1_120 9.9689884226937775e-01
x_1_121 3.0958861693507060e+02
s_1_121 0
z_1_121 9.9690411383064925e-01
x_1_122 3.0781725397147238e+02
s_1_122 0
z_1_122 9.9692182746028535e-01
x_1_123 3.0706239601038396e+02
s_1_123 0
z_1_123 9.9692937603989618e-01
x_1_124 3.1081100439839065e+02
s_1_124 0
z_1_124 9.9689188995601608e-01
x_1_125 0
s_1_125 1.5099661251879297e+00
z_1_125 1
x_1_126 3.0857594550400972e+02
s_1_126 0
z_1_126 9.9691424054495992e-01
x_1_127 0
s_1_127 1.5846413653816853e+00
z_1_127 1
x_1_128 3.0675802786089480e+02
s_1_128 0
z_1_128 0.996932419721391
x_1_129 0
s_1_129 1.2034350171452388e+00
z_1_129 1
x_1_130 4.9999145897096045e+04
s_1_130 5.0000854102903955e+04
z_1_130 5.0000854102903958e-01
x_1_131 0
s_1_131 1.6435265576365055e+00
z_1_131 1
x_1_132 3.1052330124750733e+02
s_1_132 0
z_1_132 0.996894766987525
x_1_133 0
s_1_133 1.1359452365431935e+00
z_1_133 1
x_1_134 307.990475455299
s_1_134 0
z_1_134 0.996920095245447
x_1_135 0
s_1_135 6.4155352537636645e-01
z_1_135 1
x_1_136 0
s_1_136 7.6942154759308323e-01
z_1_136 1
x_1_137 4.9999383189392509e+04
s_1_137 5.0000616810607491e+04
z_1_137 5.0000616810607490e-01
x_1_138 310.593216041103
s_1_138 0
z_1_138 0.996894067839589
x_1_139 0
s_1_139 1.1068441462703049e+00
z_1_139 1
x_1_140 0
s_1_140 1.2128360646311194e+00
z_1_140 1
x_1_141 0
s_1_141 1.2398000787070487e+00
z_1_141 1
x_1_142 0
s_1_142 1.2997581780509790e+00
z_1_142 1
x_1_143 4.9999394450609223e+04
s_1_143 5.0000605549390777e+04
z_1_143 5.0000605549390775e-01
x_1_144 3.1038371465262026e+02
s_1_144 0
z_1_144 9.9689616285347382e-01
x_1_145 0
s_1_145 7.3127423042024020e-01
z_1_145 1
x_1_146 3.0996008278662339e+02
s_1_146 0
z_1_146 9.9690039917213380e-01
x_1_147 3.1038729947432876e+02
s_1_147 0
z_1_147 9.9689612700525676e-01
x_1_148 3.0802798865083605e+02
s_1_148 0
z_1_148 9.9691972011349161e-01
x_1_149 0
s_1_149 1.0485447236787877e+00
z_1_149 1
x_1_150 3.0638234833069146e+02
s_1_150 0
z_1_150 9.9693617651669308e-01
x_1_151 3.1009911840222776e+02
s_1_151 0
z_1_151 9.9689900881597771e-01
x_1_152 3.0914200994558632e+02
s_1_152 0
z_1_152 9.9690857990054416e-01
x_1_153 4.9999551021110856e+04
s_1_153 5.0000448978889144e+04
z_1_153 5.0000448978889145e-01
x_1_154 0
s_1_154 1.3185255352291279e+00
z_1_154 1
x_1_155 3.0879450809350237e+02
s_1_155 0
z_1_155 0.996912054919065
x_1_156 3.1005716866254807e+02
s_1_156 0
z_1_156 9.9689942831337452e-01
x_1_157 4.9999217527903995e+04
s_1_157 5.0000782472096005e+04
z_1_157 5.0000782472096006e-01
x_1_158 0
s_1_158 6.6577576263807714e-01
z_1_158 1
x_1_159 309.830583785646
s_1_159 0
z_1_159 9.9690169416214347e-01
x_2_0 1.6511096580757378e+05
